2025-11-09 23:31:21,232 INFO - Solving the line planning problem with ILP
2025-11-09 23:31:21,243 INFO - Set parameter Username
2025-11-09 23:31:21,243 INFO - Set parameter LicenseID to value 2711114
2025-11-09 23:31:21,244 INFO - Academic license - for non-commercial use only - expires 2026-09-20
2025-11-09 23:31:21,244 INFO - Set parameter TimeLimit to value 86400
2025-11-09 23:31:21,355 INFO - Set parameter LogFile to value "Results\10_percent\budget_200000\original\gurobi.log"
2025-11-09 23:31:21,355 INFO - method: -1
2025-11-09 23:31:21,355 INFO - Gurobi Optimizer version 12.0.3 build v12.0.3rc0 (win64 - Windows 11+.0 (26200.2))
2025-11-09 23:31:21,355 INFO - 
2025-11-09 23:31:21,355 INFO - CPU model: Intel(R) Core(TM) Ultra 7 265K, instruction set [SSE2|AVX|AVX2]
2025-11-09 23:31:21,356 INFO - Thread count: 20 physical cores, 20 logical processors, using up to 20 threads
2025-11-09 23:31:21,356 INFO - 
2025-11-09 23:31:21,356 INFO - Non-default parameters:
2025-11-09 23:31:21,356 INFO - TimeLimit  86400
2025-11-09 23:31:21,356 INFO - 
2025-11-09 23:31:21,356 INFO - Optimize a model with 2726 rows, 23143 columns and 143242 nonzeros
2025-11-09 23:31:21,357 INFO - Model fingerprint: 0xa225f99a
2025-11-09 23:31:21,357 INFO - Variable types: 0 continuous, 23143 integer (23143 binary)
2025-11-09 23:31:21,357 INFO - Coefficient statistics:
2025-11-09 23:31:21,357 INFO -   Matrix range     [1e+00, 2e+03]
2025-11-09 23:31:21,357 INFO -   Objective range  [1e+00, 8e+02]
2025-11-09 23:31:21,357 INFO -   Bounds range     [1e+00, 1e+00]
2025-11-09 23:31:21,357 INFO -   RHS range        [1e+00, 2e+05]
2025-11-09 23:31:21,358 INFO - Found heuristic solution: objective -0.0000000
2025-11-09 23:31:21,701 INFO - Presolve removed 1005 rows and 7596 columns
2025-11-09 23:31:21,702 INFO - Presolve time: 0.34s
2025-11-09 23:31:21,702 INFO - Presolved: 1721 rows, 15547 columns, 82254 nonzeros
2025-11-09 23:31:21,725 INFO - Found heuristic solution: objective 111332.00000
2025-11-09 23:31:21,725 INFO - Variable types: 0 continuous, 15547 integer (15537 binary)
2025-11-09 23:31:21,727 INFO - Found heuristic solution: objective 159760.00000
2025-11-09 23:31:21,736 INFO - 
2025-11-09 23:31:21,736 INFO - Root relaxation: objective 2.417770e+05, 238 iterations, 0.01 seconds (0.01 work units)
2025-11-09 23:31:21,743 INFO - 
2025-11-09 23:31:21,743 INFO -     Nodes    |    Current Node    |     Objective Bounds      |     Work
2025-11-09 23:31:21,743 INFO -  Expl Unexpl |  Obj  Depth IntInf | Incumbent    BestBd   Gap | It/Node Time
2025-11-09 23:31:21,743 INFO - 
2025-11-09 23:31:21,743 INFO - *    0     0               0    241777.00000 241777.000  0.00%     -    0s
2025-11-09 23:31:21,761 INFO - 
2025-11-09 23:31:21,762 INFO - Explored 1 nodes (238 simplex iterations) in 0.40 seconds (0.63 work units)
2025-11-09 23:31:21,762 INFO - Thread count was 20 (of 20 available processors)
2025-11-09 23:31:21,762 INFO - 
2025-11-09 23:31:21,762 INFO - Solution count 4: 241777 159760 111332 -0 
2025-11-09 23:31:21,762 INFO - 
2025-11-09 23:31:21,762 INFO - Optimal solution found (tolerance 1.00e-04)
2025-11-09 23:31:21,762 INFO - Best objective 2.417770000000e+05, best bound 2.417770000000e+05, gap 0.0000%
2025-11-09 23:31:21,762 INFO - Execution time: 0.40716052055358887
2025-11-09 23:31:21,762 INFO - Final solution: 241777.0
2025-11-09 23:31:21,853 INFO - Exported used lines to Results\10_percent\budget_200000\original\used_lines.csv
2025-11-09 23:31:21,875 INFO - Exported passenger assignments to Results\10_percent\budget_200000\original\passenger_assignments.csv
2025-11-09 23:31:21,878 INFO - Building flow variables
2025-11-09 23:31:30,766 INFO - Building flow conservation constraints
2025-11-09 23:31:49,068 INFO - Gurobi Optimizer version 12.0.3 build v12.0.3rc0 (win64 - Windows 11+.0 (26200.2))
2025-11-09 23:31:49,068 INFO - 
2025-11-09 23:31:49,068 INFO - CPU model: Intel(R) Core(TM) Ultra 7 265K, instruction set [SSE2|AVX|AVX2]
2025-11-09 23:31:49,068 INFO - Thread count: 20 physical cores, 20 logical processors, using up to 20 threads
2025-11-09 23:31:49,068 INFO - 
2025-11-09 23:31:49,068 INFO - Optimize a model with 4286 rows, 3845521 columns and 7689445 nonzeros
2025-11-09 23:31:49,117 INFO - Model fingerprint: 0x12b8c5b9
2025-11-09 23:31:49,118 INFO - Variable types: 0 continuous, 3845521 integer (0 binary)
2025-11-09 23:31:49,140 INFO - Coefficient statistics:
2025-11-09 23:31:49,140 INFO -   Matrix range     [1e+00, 1e+00]
2025-11-09 23:31:49,140 INFO -   Objective range  [1e+00, 1e+03]
2025-11-09 23:31:49,140 INFO -   Bounds range     [0e+00, 0e+00]
2025-11-09 23:31:49,140 INFO -   RHS range        [1e+00, 3e+00]
2025-11-09 23:31:49,474 INFO - Found heuristic solution: objective 2722818.0000
2025-11-09 23:31:54,636 INFO - Presolve removed 2331 rows and 1973 columns (presolve time = 5s)...
2025-11-09 23:31:59,503 INFO - Presolve removed 2331 rows and 25451 columns (presolve time = 10s)...
2025-11-09 23:32:04,679 INFO - Presolve removed 2331 rows and 25451 columns (presolve time = 15s)...
2025-11-09 23:32:05,024 INFO - Presolve removed 2331 rows and 25451 columns
2025-11-09 23:32:05,024 INFO - Presolve time: 15.54s
2025-11-09 23:32:05,065 INFO - Presolved: 1955 rows, 3820070 columns, 7640140 nonzeros
2025-11-09 23:32:06,100 INFO - Variable types: 0 continuous, 3820070 integer (0 binary)
2025-11-09 23:32:07,739 INFO - Deterministic concurrent LP optimizer: primal simplex, dual simplex, and barrier
2025-11-09 23:32:07,739 INFO - Showing barrier log only...
2025-11-09 23:32:07,739 INFO - 
2025-11-09 23:32:08,294 INFO - Root barrier log...
2025-11-09 23:32:08,295 INFO - 
2025-11-09 23:32:08,570 INFO - Ordering time: 0.10s
2025-11-09 23:32:09,113 INFO - 
2025-11-09 23:32:09,114 INFO - Barrier statistics:
2025-11-09 23:32:09,114 INFO -  AA' NZ     : 1.910e+06
2025-11-09 23:32:09,114 INFO -  Factor NZ  : 1.912e+06 (roughly 1.5 GB of memory)
2025-11-09 23:32:09,114 INFO -  Factor Ops : 2.493e+09 (less than 1 second per iteration)
2025-11-09 23:32:09,114 INFO -  Threads    : 18
2025-11-09 23:32:09,517 INFO - 
2025-11-09 23:32:09,517 INFO -                   Objective                Residual
2025-11-09 23:32:09,517 INFO - Iter       Primal          Dual         Primal    Dual     Compl     Time
2025-11-09 23:32:09,637 INFO -    0   2.06421379e+13 -5.14722939e+13  1.87e+04 2.27e-13  2.20e+07    21s
2025-11-09 23:32:10,218 INFO -    1   4.10210937e+12 -2.18513429e+13  1.23e-07 1.48e-12  3.40e+06    21s
2025-11-09 23:32:10,254 INFO - 
2025-11-09 23:32:10,254 INFO - Barrier performed 1 iterations in 21.17 seconds (17.01 work units)
2025-11-09 23:32:10,254 INFO - Barrier solve interrupted - model solved by another algorithm
2025-11-09 23:32:10,254 INFO - 
2025-11-09 23:32:10,307 INFO - Concurrent spin time: 1.75s (can be avoided by choosing Method=3)
2025-11-09 23:32:10,307 INFO - 
2025-11-09 23:32:10,307 INFO - Solved with primal simplex
2025-11-09 23:32:10,364 INFO - 
2025-11-09 23:32:10,364 INFO - Root simplex log...
2025-11-09 23:32:10,364 INFO - 
2025-11-09 23:32:10,364 INFO - Iteration    Objective       Primal Inf.    Dual Inf.      Time
2025-11-09 23:32:10,364 INFO -    14887    1.8506300e+05   0.000000e+00   0.000000e+00     21s
2025-11-09 23:32:10,364 INFO - 
2025-11-09 23:32:10,364 INFO - Root relaxation: objective 1.850630e+05, 14887 iterations, 4.13 seconds (2.17 work units)
2025-11-09 23:32:10,727 INFO - 
2025-11-09 23:32:10,727 INFO -     Nodes    |    Current Node    |     Objective Bounds      |     Work
2025-11-09 23:32:10,727 INFO -  Expl Unexpl |  Obj  Depth IntInf | Incumbent    BestBd   Gap | It/Node Time
2025-11-09 23:32:10,727 INFO - 
2025-11-09 23:32:10,728 INFO - *    0     0               0    185063.00000 185063.000  0.00%     -   21s
2025-11-09 23:32:10,895 INFO - 
2025-11-09 23:32:10,895 INFO - Explored 1 nodes (14887 simplex iterations) in 21.83 seconds (17.05 work units)
2025-11-09 23:32:10,895 INFO - Thread count was 20 (of 20 available processors)
2025-11-09 23:32:10,895 INFO - 
2025-11-09 23:32:10,895 INFO - Solution count 2: 185063 2.72282e+06 
2025-11-09 23:32:10,895 INFO - 
2025-11-09 23:32:10,895 INFO - Optimal solution found (tolerance 1.00e-04)
2025-11-09 23:32:10,920 INFO - Best objective 1.850630000000e+05, best bound 1.850630000000e+05, gap 0.0000%
2025-11-09 23:32:13,916 INFO - Exported flows to Results\10_percent\budget_200000\original\flows.csv
